CMD:
./solvers/bin/cadical --plain --no-reduce -t 1600 ./data/cnfs//shift_register_top_w16_d8_e0/shift_register_top_w16_d8_e0.54.cnf

c --- [ banner ] -------------------------------------------------------------
c 
c CaDiCaL SAT Solver
c Copyright (c) 2016-2024
c A. Biere, M. Fleury, N. Froleyks, K. Fazekas, F. Pollitt, T. Faller
c JKU Linz, University of Freiburg, TU Wien
c 
c Version 2.1.3 5296d3d2a9bf48c154ab2acb5e44625776d821bf
c g++ (Gentoo 12.3.1_p20230526 p2) 12.3.1 20230526 -Wall -Wextra -O3 -DNDEBUG
c Sat Aug 9 07:26:21 PDT 2025 Linux cedar2.int.cedar.computecanada.ca 5.14.0-362.24.2.el9_3.x86_64 x86_64
c 
c --- [ limit ] --------------------------------------------------------------
c 
c setting time limit to 1600 seconds real time (due to '-t 1600')
c 
c --- [ parsing input ] ------------------------------------------------------
c 
c reading DIMACS file from './data/cnfs//shift_register_top_w16_d8_e0/shift_register_top_w16_d8_e0.54.cnf'
c opening file to read './data/cnfs//shift_register_top_w16_d8_e0/shift_register_top_w16_d8_e0.54.cnf'
c found 'p cnf 72041 209661' header
c parsed 209661 clauses in 0.03 seconds process time
c 
c --- [ options ] ------------------------------------------------------------
c 
c   --compact=false                (different from default 'true')
c   --decompose=false              (different from default 'true')
c   --deduplicate=false            (different from default 'true')
c   --elim=false                   (different from default 'true')
c   --probe=false                  (different from default 'true')
c   --reduce=false                 (different from default 'true')
c   --subsume=false                (different from default 'true')
c   --ternary=false                (different from default 'true')
c   --transred=false               (different from default 'true')
c   --vivify=false                 (different from default 'true')
c 
c --- [ solving ] ------------------------------------------------------------
c 
c time measured in process time since initialization
c 
c  seconds  reductions  redundant  irredundant
c         MB    restarts       trail       variables
c          level   conflicts       glue         remaining
c 
c *  0.03 36  0 0   0    0    0  0% 0 206372 68739 95%
c {  0.05 37  0 0   0    0    0  0% 0 206372 68739 95%
c i  0.05 38 1831 0   0    9    8 96% 1 206372 68610 95%
c i  0.06 38 1274 0   9   88   72 74% 2 206372 68481 95%
c i  0.06 38 902 0  12  121   99 58% 2 206372 68438 95%
c }  0.10 38 637 0  45  248  220 48% 3 206372 68438 95%
c 1  0.10 38 637 0  45  248  220 48% 3 206372 68438 95%
c 
c --- [ result ] -------------------------------------------------------------
c 
s SATISFIABLE
v 1 -2 -3 -4 -5 -6 -7 -8 -9 -10 -11 -12 -13 -14 -15 -16 -17 -18 -19 -20 -21
v -22 -23 -24 -25 -26 -27 -28 -29 -30 -31 -32 -33 34 35 36 37 38 -39 -40 -41
v -42 -43 -44 -45 -46 -47 -48 -49 -50 -51 -52 -53 -54 -55 -56 -57 -58 -59 -60
v -61 -62 -63 -64 -65 -66 -67 -68 -69 -70 -71 -72 -73 -74 -75 -76 -77 -78 -79
v -80 -81 -82 -83 -84 -85 -86 87 88 89 90 91 92 93 94 95 96 97 98 99 100 101
v 102 -103 -104 -105 -106 -107 -108 -109 -110 -111 -112 -113 -114 -115 -116
v -117 -118 -119 -120 121 122 123 -124 -125 -126 -127 -128 -129 -130 -131 -132
v -133 -134 -135 -136 -137 -138 -139 -140 -141 -142 -143 -144 -145 -146 -147
v -148 -149 -150 -151 -152 -153 -154 -155 -156 -157 -158 159 -160 -161 -162
v -163 -164 -165 -166 -167 -168 -169 -170 -171 -172 -173 -174 -175 -176 177
v 178 -179 -180 -181 -182 -183 -184 -185 -186 -187 -188 -189 -190 -191 -192
v -193 -194 -195 -196 -197 -198 -199 -200 201 -202 -203 -204 205 -206 -207
v -208 209 -210 -211 -212 213 -214 -215 -216 217 -218 -219 -220 221 -222 -223
v -224 225 -226 -227 -228 229 -230 -231 -232 233 -234 -235 -236 237 -238 -239
v -240 241 -242 -243 -244 245 -246 -247 -248 249 -250 -251 -252 253 -254 -255
v -256 257 -258 -259 -260 261 -262 -263 -264 -265 -266 -267 -268 269 -270 -271
v -272 -273 -274 275 -276 277 -278 -279 -280 -281 -282 283 -284 285 -286 -287
v -288 -289 -290 291 -292 293 -294 -295 -296 -297 -298 299 -300 301 -302 -303
v -304 -305 -306 307 -308 309 -310 -311 -312 -313 -314 315 -316 317 -318 -319
v -320 -321 -322 323 -324 325 -326 -327 -328 -329 -330 331 -332 333 -334 -335
v -336 -337 -338 339 -340 341 -342 -343 -344 -345 -346 347 -348 349 -350 -351
v -352 -353 -354 355 -356 357 -358 -359 -360 -361 -362 363 -364 365 -366 -367
v -368 -369 -370 371 -372 373 -374 -375 -376 -377 -378 379 -380 381 -382 -383
v -384 -385 -386 387 -388 389 -390 -391 -392 -393 -394 395 -396 397 -398 -399
v -400 -401 -402 -403 -404 -405 -406 -407 -408 409 -410 411 -412 -413 -414
v -415 -416 417 -418 419 -420 -421 -422 -423 -424 425 -426 427 -428 -429 -430
v -431 -432 433 -434 435 -436 -437 -438 -439 -440 441 -442 443 -444 -445 -446
v -447 -448 449 -450 451 -452 -453 -454 -455 -456 457 -458 459 -460 -461 -462
v -463 -464 465 -466 467 -468 -469 -470 -471 -472 473 -474 475 -476 -477 -478
v -479 -480 481 -482 483 -484 -485 -486 -487 -488 489 -490 491 -492 -493 -494
v -495 -496 497 -498 499 -500 -501 -502 -503 -504 505 -506 507 -508 -509 -510
v -511 -512 513 -514 515 -516 -517 -518 -519 -520 521 -522 523 -524 -525 -526
v -527 -528 529 -530 531 -532 533 534 535 536 -537 -538 -539 540 -541 -542 543
v -544 -545 -546 -547 -548 -549 -550 -551 552 -553 554 -555 -556 -557 -558
v -559 560 -561 562 -563 -564 -565 -566 -567 568 -569 570 -571 -572 -573 -574
v -575 576 -577 578 -579 -580 -581 -582 -583 584 -585 586 -587 -588 -589 -590
v -591 592 -593 594 -595 -596 -597 -598 -599 600 -601 602 -603 -604 -605 -606
v -607 608 -609 610 -611 -612 -613 -614 -615 616 -617 618 -619 -620 -621 -622
v -623 624 -625 626 -627 -628 -629 -630 -631 632 -633 634 -635 -636 -637 -638
v -639 640 -641 642 -643 -644 -645 -646 -647 648 -649 650 -651 -652 -653 -654
v -655 656 -657 658 -659 -660 -661 -662 -663 664 -665 666 -667 -668 -669 -670
v -671 672 -673 674 -675 -676 -677 -678 -679 -680 681 -682 -683 -684 -685 -686
v 687 -688 689 -690 -691 -692 -693 -694 695 -696 697 -698 -699 -700 -701 -702
... skipped 6249 lines ...
v -71430 71431 71432 -71433 71434 -71435 -71436 71437 -71438 71439 71440
v -71441 71442 -71443 -71444 71445 -71446 71447 71448 -71449 71450 -71451
v -71452 71453 -71454 71455 71456 -71457 71458 -71459 -71460 71461 -71462
v 71463 71464 -71465 71466 -71467 -71468 71469 -71470 71471 71472 -71473 71474
v -71475 -71476 71477 -71478 71479 71480 -71481 71482 -71483 -71484 71485
v -71486 71487 -71488 -71489 71490 -71491 -71492 71493 -71494 71495 71496
v -71497 -71498 71499 71500 71501 -71502 -71503 71504 71505 -71506 -71507
v -71508 -71509 -71510 71511 -71512 -71513 -71514 -71515 -71516 -71517 71518
v 71519 -71520 71521 71522 -71523 71524 71525 -71526 71527 -71528 71529 71530
v 71531 -71532 71533 -71534 -71535 -71536 71537 -71538 71539 -71540 -71541
v 71542 -71543 -71544 71545 -71546 71547 -71548 -71549 71550 -71551 71552
v 71553 -71554 71555 -71556 -71557 71558 -71559 71560 71561 -71562 71563
v -71564 -71565 71566 -71567 71568 71569 -71570 71571 -71572 -71573 71574
v -71575 71576 71577 -71578 71579 -71580 -71581 71582 -71583 71584 71585
v -71586 71587 -71588 -71589 71590 -71591 71592 71593 -71594 71595 -71596
v -71597 71598 -71599 71600 71601 -71602 71603 -71604 -71605 71606 -71607
v 71608 71609 -71610 71611 -71612 -71613 71614 -71615 71616 71617 -71618 71619
v -71620 -71621 71622 -71623 71624 71625 -71626 71627 -71628 -71629 71630
v -71631 71632 71633 -71634 71635 -71636 -71637 71638 -71639 71640 71641
v -71642 71643 -71644 -71645 71646 -71647 71648 71649 -71650 71651 -71652
v -71653 71654 -71655 71656 71657 -71658 71659 -71660 -71661 71662 -71663
v 71664 71665 -71666 71667 -71668 -71669 -71670 71671 -71672 71673 -71674
v -71675 -71676 71677 -71678 71679 -71680 -71681 71682 -71683 71684 71685
v -71686 71687 -71688 -71689 71690 -71691 71692 71693 -71694 71695 -71696
v -71697 71698 -71699 71700 71701 -71702 71703 -71704 -71705 71706 -71707
v 71708 71709 -71710 71711 -71712 -71713 71714 -71715 71716 71717 -71718 71719
v -71720 -71721 71722 -71723 71724 71725 -71726 71727 -71728 -71729 71730
v -71731 71732 71733 -71734 71735 -71736 -71737 71738 -71739 71740 71741
v -71742 71743 -71744 -71745 71746 -71747 71748 71749 -71750 71751 -71752
v -71753 71754 -71755 71756 71757 -71758 71759 -71760 -71761 71762 -71763
v 71764 71765 -71766 71767 -71768 -71769 71770 -71771 71772 71773 -71774 71775
v -71776 -71777 71778 -71779 71780 71781 -71782 71783 -71784 -71785 71786
v -71787 71788 -71789 71790 -71791 -71792 71793 -71794 -71795 -71796 -71797
v 71798 -71799 -71800 -71801 -71802 -71803 -71804 71805 71806 -71807 -71808
v -71809 71810 -71811 71812 -71813 -71814 71815 -71816 71817 -71818 -71819
v -71820 -71821 71822 -71823 -71824 -71825 -71826 -71827 -71828 71829 -71830
v -71831 -71832 -71833 -71834 -71835 71836 -71837 -71838 -71839 71840 -71841
v 71842 -71843 -71844 -71845 71846 -71847 71848 -71849 -71850 -71851 -71852
v 71853 -71854 71855 -71856 -71857 71858 -71859 71860 71861 -71862 71863
v -71864 -71865 71866 -71867 71868 71869 -71870 71871 -71872 -71873 71874
v -71875 71876 71877 -71878 71879 -71880 -71881 71882 -71883 71884 71885
v -71886 71887 -71888 -71889 71890 -71891 71892 71893 -71894 71895 -71896
v -71897 71898 -71899 71900 71901 -71902 71903 -71904 -71905 71906 -71907
v 71908 71909 -71910 71911 -71912 -71913 71914 -71915 71916 71917 -71918 71919
v -71920 -71921 71922 -71923 71924 71925 -71926 71927 -71928 -71929 71930
v -71931 71932 71933 -71934 71935 -71936 -71937 71938 -71939 71940 71941
v -71942 71943 -71944 -71945 71946 -71947 71948 71949 -71950 71951 -71952
v -71953 71954 -71955 71956 71957 -71958 71959 -71960 -71961 71962 -71963
v 71964 71965 -71966 71967 -71968 -71969 71970 -71971 71972 71973 -71974 71975
v -71976 71977 -71978 -71979 71980 -71981 71982 -71983 71984 -71985 71986
v -71987 71988 -71989 71990 -71991 71992 -71993 71994 -71995 71996 -71997
v 71998 -71999 72000 -72001 72002 -72003 72004 -72005 72006 -72007 72008
v -72009 72010 -72011 72012 -72013 72014 -72015 72016 -72017 72018 -72019
v 72020 -72021 72022 -72023 72024 -72025 72026 -72027 72028 -72029 72030
v -72031 72032 -72033 72034 -72035 72036 -72037 72038 -72039 72040 -72041 0
c 
c --- [ run-time profiling ] -------------------------------------------------
c 
c process time taken by individual solving procedures
c (percentage relative to process time for solving)
c 
c         0.07   99.84% search
c         0.05   71.35% unstable
c         0.03   43.65% parse
c         0.02   28.39% lucky
c         0.00    0.00% simplify
c   =================================
c         0.07   67.12% solve
c 
c last line shows process time for solving
c (percentage relative to total process time)
c 
c --- [ statistics ] ---------------------------------------------------------
c 
c chronological:                82        33.06 %  of conflicts
c conflicts:                   248      3690.59    per second
c decisions:                 27669    411753.33    per second
c fixed:                      3602         5.00 %  of all variables
c learned:                     229        92.34 %  per conflict
c learned_lits:               1704       100.00 %  learned literals
c minimized:                     0         0.00 %  learned literals
c shrunken:                    147         8.63 %  learned literals
c minishrunken:                140         8.22 %  learned literals
c otfs:                          1         0.40 %  of conflict
c propagations:            1492768        22.21 M  per second
c restarts:                     45         5.51    interval
c subsumed:                      6         0.00 %  of all clauses
c strengthened:                  1         0.00 %  of all clauses
c 
c seconds are measured in process time for solving
c 
c --- [ resources ] ----------------------------------------------------------
c 
c total process time since initialization:         0.10    seconds
c total real time since initialization:            0.10    seconds
c maximum resident set size of process:           35.40    MB
c 
c --- [ shutting down ] ------------------------------------------------------
c 
c exit 10
